
Gurobi 9.1.0 (win64) logging started Sun Jan 10 10:02:47 2021

Changed value of parameter LogFile to D:\base\jupyter\gurobi\example\log.txt
   Prev:   Default: 
Gurobi Optimizer version 9.1.0 build v9.1.0rc0 (win64)
Thread count: 4 physical cores, 8 logical processors, using up to 8 threads
Optimize a model with 2 rows, 5051 columns and 51 nonzeros
Model fingerprint: 0xe889620c
Variable types: 5001 continuous, 50 integer (50 binary)
Coefficient statistics:
  Matrix range     [1e+00, 3e+03]
  Objective range  [1e+00, 2e+03]
  Bounds range     [1e+00, 1e+00]
  RHS range        [8e+03, 1e+05]

MIP start from previous solve produced solution with objective 140316 (0.01s)
Loaded MIP start from previous solve with objective 140316

Presolve removed 1 rows and 5001 columns
Presolve time: 0.00s
Presolved: 1 rows, 50 columns, 50 nonzeros
Variable types: 0 continuous, 50 integer (50 binary)

Root relaxation: objective 1.402191e+05, 1 iterations, 0.00 seconds

    Nodes    |    Current Node    |     Objective Bounds      |     Work
 Expl Unexpl |  Obj  Depth IntInf | Incumbent    BestBd   Gap | It/Node Time

     0     0 infeasible    0      140316.000 140316.000  0.00%     -    0s

Explored 0 nodes (1 simplex iterations) in 0.02 seconds
Thread count was 8 (of 8 available processors)

Solution count 1: 140316 

Optimal solution found (tolerance 1.00e-04)
Best objective 1.403160000000e+05, best bound 1.403160000000e+05, gap 0.0000%
Parameter LogFile unchanged
   Value: D:\base\jupyter\gurobi\example\log.txt  Default: 
Gurobi Optimizer version 9.1.0 build v9.1.0rc0 (win64)
Thread count: 4 physical cores, 8 logical processors, using up to 8 threads
Optimize a model with 3 rows, 5051 columns and 52 nonzeros
Model fingerprint: 0xae7ff12c
Variable types: 5001 continuous, 50 integer (50 binary)
Coefficient statistics:
  Matrix range     [1e+00, 3e+03]
  Objective range  [1e+00, 2e+03]
  Bounds range     [1e+00, 1e+00]
  RHS range        [8e+03, 1e+05]

MIP start from previous solve produced solution with objective 140316 (0.01s)
Loaded MIP start from previous solve with objective 140316

Presolve removed 2 rows and 5001 columns
Presolve time: 0.00s
Presolved: 1 rows, 50 columns, 50 nonzeros
Variable types: 0 continuous, 50 integer (50 binary)

Root relaxation: objective 1.402191e+05, 1 iterations, 0.00 seconds

    Nodes    |    Current Node    |     Objective Bounds      |     Work
 Expl Unexpl |  Obj  Depth IntInf | Incumbent    BestBd   Gap | It/Node Time

     0     0 infeasible    0      140316.000 140316.000  0.00%     -    0s

Explored 0 nodes (1 simplex iterations) in 0.03 seconds
Thread count was 8 (of 8 available processors)

Solution count 1: 140316 

Optimal solution found (tolerance 1.00e-04)
Best objective 1.403160000000e+05, best bound 1.403160000000e+05, gap 0.0000%
Parameter LogFile unchanged
   Value: D:\base\jupyter\gurobi\example\log.txt  Default: 
Gurobi Optimizer version 9.1.0 build v9.1.0rc0 (win64)
Thread count: 4 physical cores, 8 logical processors, using up to 8 threads
Optimize a model with 4 rows, 5051 columns and 53 nonzeros
Model fingerprint: 0x13096370
Variable types: 5001 continuous, 50 integer (50 binary)
Coefficient statistics:
  Matrix range     [1e+00, 3e+03]
  Objective range  [1e+00, 2e+03]
  Bounds range     [1e+00, 1e+00]
  RHS range        [8e+03, 1e+05]

MIP start from previous solve produced solution with objective 140316 (0.01s)
Loaded MIP start from previous solve with objective 140316

Presolve removed 3 rows and 5001 columns
Presolve time: 0.00s
Presolved: 1 rows, 50 columns, 50 nonzeros
Variable types: 0 continuous, 50 integer (50 binary)

Root relaxation: objective 1.402191e+05, 1 iterations, 0.00 seconds

    Nodes    |    Current Node    |     Objective Bounds      |     Work
 Expl Unexpl |  Obj  Depth IntInf | Incumbent    BestBd   Gap | It/Node Time

     0     0 infeasible    0      140316.000 140316.000  0.00%     -    0s

Explored 0 nodes (1 simplex iterations) in 0.03 seconds
Thread count was 8 (of 8 available processors)

Solution count 1: 140316 

Optimal solution found (tolerance 1.00e-04)
Best objective 1.403160000000e+05, best bound 1.403160000000e+05, gap 0.0000%
Parameter LogFile unchanged
   Value: D:\base\jupyter\gurobi\example\log.txt  Default: 
Gurobi Optimizer version 9.1.0 build v9.1.0rc0 (win64)
Thread count: 4 physical cores, 8 logical processors, using up to 8 threads
Optimize a model with 5 rows, 5051 columns and 54 nonzeros
Model fingerprint: 0x15f65139
Variable types: 5001 continuous, 50 integer (50 binary)
Coefficient statistics:
  Matrix range     [1e+00, 3e+03]
  Objective range  [1e+00, 2e+03]
  Bounds range     [1e+00, 1e+00]
  RHS range        [8e+03, 1e+05]

MIP start from previous solve produced solution with objective 140316 (0.01s)
Loaded MIP start from previous solve with objective 140316

Presolve removed 4 rows and 5001 columns
Presolve time: 0.00s
Presolved: 1 rows, 50 columns, 50 nonzeros
Variable types: 0 continuous, 50 integer (50 binary)

Root relaxation: objective 1.402191e+05, 1 iterations, 0.00 seconds

    Nodes    |    Current Node    |     Objective Bounds      |     Work
 Expl Unexpl |  Obj  Depth IntInf | Incumbent    BestBd   Gap | It/Node Time

     0     0 infeasible    0      140316.000 140316.000  0.00%     -    0s

Explored 0 nodes (1 simplex iterations) in 0.03 seconds
Thread count was 8 (of 8 available processors)

Solution count 1: 140316 

Optimal solution found (tolerance 1.00e-04)
Best objective 1.403160000000e+05, best bound 1.403160000000e+05, gap 0.0000%
Parameter LogFile unchanged
   Value: D:\base\jupyter\gurobi\example\log.txt  Default: 
Gurobi Optimizer version 9.1.0 build v9.1.0rc0 (win64)
Thread count: 4 physical cores, 8 logical processors, using up to 8 threads
Optimize a model with 6 rows, 5051 columns and 55 nonzeros
Model fingerprint: 0xc59becc6
Variable types: 5001 continuous, 50 integer (50 binary)
Coefficient statistics:
  Matrix range     [1e+00, 3e+03]
  Objective range  [1e+00, 2e+03]
  Bounds range     [1e+00, 1e+00]
  RHS range        [8e+03, 1e+05]

MIP start from previous solve produced solution with objective 140316 (0.01s)
Loaded MIP start from previous solve with objective 140316

Presolve removed 5 rows and 5001 columns
Presolve time: 0.00s
Presolved: 1 rows, 50 columns, 50 nonzeros
Variable types: 0 continuous, 50 integer (50 binary)

Root relaxation: objective 1.402191e+05, 1 iterations, 0.00 seconds

    Nodes    |    Current Node    |     Objective Bounds      |     Work
 Expl Unexpl |  Obj  Depth IntInf | Incumbent    BestBd   Gap | It/Node Time

     0     0 infeasible    0      140316.000 140316.000  0.00%     -    0s

Explored 0 nodes (1 simplex iterations) in 0.02 seconds
Thread count was 8 (of 8 available processors)

Solution count 1: 140316 

Optimal solution found (tolerance 1.00e-04)
Best objective 1.403160000000e+05, best bound 1.403160000000e+05, gap 0.0000%
Parameter LogFile unchanged
   Value: D:\base\jupyter\gurobi\example\log.txt  Default: 
Gurobi Optimizer version 9.1.0 build v9.1.0rc0 (win64)
Thread count: 4 physical cores, 8 logical processors, using up to 8 threads
Optimize a model with 7 rows, 5051 columns and 56 nonzeros
Model fingerprint: 0x7fd2ede2
Variable types: 5001 continuous, 50 integer (50 binary)
Coefficient statistics:
  Matrix range     [1e+00, 3e+03]
  Objective range  [1e+00, 2e+03]
  Bounds range     [1e+00, 1e+00]
  RHS range        [8e+03, 1e+05]

MIP start from previous solve produced solution with objective 140316 (0.01s)
Loaded MIP start from previous solve with objective 140316

Presolve removed 6 rows and 5001 columns
Presolve time: 0.01s
Presolved: 1 rows, 50 columns, 50 nonzeros
Variable types: 0 continuous, 50 integer (50 binary)

Root relaxation: objective 1.402191e+05, 1 iterations, 0.00 seconds

    Nodes    |    Current Node    |     Objective Bounds      |     Work
 Expl Unexpl |  Obj  Depth IntInf | Incumbent    BestBd   Gap | It/Node Time

     0     0 infeasible    0      140316.000 140316.000  0.00%     -    0s

Explored 0 nodes (1 simplex iterations) in 0.02 seconds
Thread count was 8 (of 8 available processors)

Solution count 1: 140316 

Optimal solution found (tolerance 1.00e-04)
Best objective 1.403160000000e+05, best bound 1.403160000000e+05, gap 0.0000%
Parameter LogFile unchanged
   Value: D:\base\jupyter\gurobi\example\log.txt  Default: 
Gurobi Optimizer version 9.1.0 build v9.1.0rc0 (win64)
Thread count: 4 physical cores, 8 logical processors, using up to 8 threads
Optimize a model with 8 rows, 5051 columns and 57 nonzeros
Model fingerprint: 0xfdeb91b7
Variable types: 5001 continuous, 50 integer (50 binary)
Coefficient statistics:
  Matrix range     [1e+00, 3e+03]
  Objective range  [1e+00, 2e+03]
  Bounds range     [1e+00, 1e+00]
  RHS range        [8e+03, 1e+05]

MIP start from previous solve produced solution with objective 140316 (0.01s)
Loaded MIP start from previous solve with objective 140316

Presolve removed 7 rows and 5001 columns
Presolve time: 0.00s
Presolved: 1 rows, 50 columns, 50 nonzeros
Variable types: 0 continuous, 50 integer (50 binary)

Root relaxation: objective 1.402191e+05, 1 iterations, 0.00 seconds

    Nodes    |    Current Node    |     Objective Bounds      |     Work
 Expl Unexpl |  Obj  Depth IntInf | Incumbent    BestBd   Gap | It/Node Time

     0     0 infeasible    0      140316.000 140316.000  0.00%     -    0s

Explored 0 nodes (1 simplex iterations) in 0.02 seconds
Thread count was 8 (of 8 available processors)

Solution count 1: 140316 

Optimal solution found (tolerance 1.00e-04)
Best objective 1.403160000000e+05, best bound 1.403160000000e+05, gap 0.0000%
Parameter LogFile unchanged
   Value: D:\base\jupyter\gurobi\example\log.txt  Default: 
Gurobi Optimizer version 9.1.0 build v9.1.0rc0 (win64)
Thread count: 4 physical cores, 8 logical processors, using up to 8 threads
Optimize a model with 9 rows, 5051 columns and 58 nonzeros
Model fingerprint: 0xb2b79088
Variable types: 5001 continuous, 50 integer (50 binary)
Coefficient statistics:
  Matrix range     [1e+00, 3e+03]
  Objective range  [1e+00, 2e+03]
  Bounds range     [1e+00, 1e+00]
  RHS range        [8e+03, 1e+05]

MIP start from previous solve produced solution with objective 140316 (0.01s)
Loaded MIP start from previous solve with objective 140316

Presolve removed 8 rows and 5001 columns
Presolve time: 0.00s
Presolved: 1 rows, 50 columns, 50 nonzeros
Variable types: 0 continuous, 50 integer (50 binary)

Root relaxation: objective 1.402191e+05, 1 iterations, 0.00 seconds

    Nodes    |    Current Node    |     Objective Bounds      |     Work
 Expl Unexpl |  Obj  Depth IntInf | Incumbent    BestBd   Gap | It/Node Time

     0     0 infeasible    0      140316.000 140316.000  0.00%     -    0s

Explored 0 nodes (1 simplex iterations) in 0.02 seconds
Thread count was 8 (of 8 available processors)

Solution count 1: 140316 

Optimal solution found (tolerance 1.00e-04)
Best objective 1.403160000000e+05, best bound 1.403160000000e+05, gap 0.0000%
Parameter LogFile unchanged
   Value: D:\base\jupyter\gurobi\example\log.txt  Default: 
Gurobi Optimizer version 9.1.0 build v9.1.0rc0 (win64)
Thread count: 4 physical cores, 8 logical processors, using up to 8 threads
Optimize a model with 10 rows, 5051 columns and 59 nonzeros
Model fingerprint: 0xb22cecb5
Variable types: 5001 continuous, 50 integer (50 binary)
Coefficient statistics:
  Matrix range     [1e+00, 3e+03]
  Objective range  [1e+00, 2e+03]
  Bounds range     [1e+00, 1e+00]
  RHS range        [8e+03, 1e+05]

MIP start from previous solve produced solution with objective 140316 (0.01s)
Loaded MIP start from previous solve with objective 140316

Presolve removed 9 rows and 5001 columns
Presolve time: 0.00s
Presolved: 1 rows, 50 columns, 50 nonzeros
Variable types: 0 continuous, 50 integer (50 binary)

Root relaxation: objective 1.402191e+05, 1 iterations, 0.00 seconds

    Nodes    |    Current Node    |     Objective Bounds      |     Work
 Expl Unexpl |  Obj  Depth IntInf | Incumbent    BestBd   Gap | It/Node Time

     0     0 infeasible    0      140316.000 140316.000  0.00%     -    0s

Explored 0 nodes (1 simplex iterations) in 0.02 seconds
Thread count was 8 (of 8 available processors)

Solution count 1: 140316 

Optimal solution found (tolerance 1.00e-04)
Best objective 1.403160000000e+05, best bound 1.403160000000e+05, gap 0.0000%
Parameter LogFile unchanged
   Value: D:\base\jupyter\gurobi\example\log.txt  Default: 
Gurobi Optimizer version 9.1.0 build v9.1.0rc0 (win64)
Thread count: 4 physical cores, 8 logical processors, using up to 8 threads
Optimize a model with 11 rows, 5051 columns and 60 nonzeros
Model fingerprint: 0x4724f6de
Variable types: 5001 continuous, 50 integer (50 binary)
Coefficient statistics:
  Matrix range     [1e+00, 3e+03]
  Objective range  [1e+00, 2e+03]
  Bounds range     [1e+00, 1e+00]
  RHS range        [8e+03, 1e+05]

MIP start from previous solve produced solution with objective 140316 (0.01s)
Loaded MIP start from previous solve with objective 140316

Presolve removed 10 rows and 5001 columns
Presolve time: 0.00s
Presolved: 1 rows, 50 columns, 50 nonzeros
Variable types: 0 continuous, 50 integer (50 binary)

Root relaxation: objective 1.402191e+05, 1 iterations, 0.00 seconds

    Nodes    |    Current Node    |     Objective Bounds      |     Work
 Expl Unexpl |  Obj  Depth IntInf | Incumbent    BestBd   Gap | It/Node Time

     0     0 infeasible    0      140316.000 140316.000  0.00%     -    0s

Explored 0 nodes (1 simplex iterations) in 0.02 seconds
Thread count was 8 (of 8 available processors)

Solution count 1: 140316 

Optimal solution found (tolerance 1.00e-04)
Best objective 1.403160000000e+05, best bound 1.403160000000e+05, gap 0.0000%
Parameter LogFile unchanged
   Value: D:\base\jupyter\gurobi\example\log.txt  Default: 
Gurobi Optimizer version 9.1.0 build v9.1.0rc0 (win64)
Thread count: 4 physical cores, 8 logical processors, using up to 8 threads
Optimize a model with 12 rows, 5051 columns and 61 nonzeros
Model fingerprint: 0x02ffe6ff
Variable types: 5001 continuous, 50 integer (50 binary)
Coefficient statistics:
  Matrix range     [1e+00, 3e+03]
  Objective range  [1e+00, 2e+03]
  Bounds range     [1e+00, 1e+00]
  RHS range        [8e+03, 1e+05]

MIP start from previous solve produced solution with objective 140316 (0.01s)
Loaded MIP start from previous solve with objective 140316

Presolve removed 11 rows and 5001 columns
Presolve time: 0.00s
Presolved: 1 rows, 50 columns, 50 nonzeros
Variable types: 0 continuous, 50 integer (50 binary)

Root relaxation: objective 1.402191e+05, 1 iterations, 0.00 seconds

    Nodes    |    Current Node    |     Objective Bounds      |     Work
 Expl Unexpl |  Obj  Depth IntInf | Incumbent    BestBd   Gap | It/Node Time

     0     0 infeasible    0      140316.000 140316.000  0.00%     -    0s

Explored 0 nodes (1 simplex iterations) in 0.02 seconds
Thread count was 8 (of 8 available processors)

Solution count 1: 140316 

Optimal solution found (tolerance 1.00e-04)
Best objective 1.403160000000e+05, best bound 1.403160000000e+05, gap 0.0000%

Gurobi 9.1.0 (win64) logging started Sun Jan 10 11:43:09 2021

Changed value of parameter LogFile to D:\base\jupyter\gurobi\example\log.txt
   Prev:   Default: 

Gurobi 9.1.0 (win64) logging started Sun Jan 10 16:54:57 2021

Changed value of parameter LogFile to D:\base\jupyter\gurobi\example\log.txt
   Prev:   Default: 

Gurobi 9.1.0 (win64) logging started Sun Jan 10 17:26:03 2021

Changed value of parameter LogFile to D:\base\jupyter\gurobi\example\log.txt
   Prev:   Default: 

Gurobi 9.1.0 (win64) logging started Sun Jan 10 17:27:35 2021

Changed value of parameter LogFile to D:\base\jupyter\gurobi\example\log.txt
   Prev:   Default: 

Gurobi 9.1.0 (win64) logging started Mon Jan 11 11:01:08 2021

Changed value of parameter LogFile to D:\base\jupyter\gurobi\example\log.txt
   Prev:   Default: 

Gurobi 9.1.0 (win64) logging started Wed Jan 27 20:13:50 2021

Changed value of parameter LogFile to D:\base\jupyter\gurobi\example\log.txt
   Prev:   Default: 

Gurobi 9.1.0 (win64) logging started Wed Jan 27 20:16:14 2021

Changed value of parameter LogFile to D:\base\jupyter\gurobi\example\log.txt
   Prev:   Default: 

Gurobi 9.1.0 (win64) logging started Wed Jan 27 20:16:56 2021

Changed value of parameter LogFile to D:\base\jupyter\gurobi\example\log.txt
   Prev:   Default: 

Gurobi 9.1.0 (win64) logging started Wed Jan 27 20:17:37 2021

Changed value of parameter LogFile to D:\base\jupyter\gurobi\example\log.txt
   Prev:   Default: 

Gurobi 9.1.0 (win64) logging started Sat Jan 30 10:53:50 2021

Changed value of parameter LogFile to D:\base\jupyter\gurobi\example\log.txt
   Prev:   Default: 

Gurobi 9.1.0 (win64) logging started Sat Jan 30 10:57:33 2021

Changed value of parameter LogFile to D:\base\jupyter\gurobi\example\log.txt
   Prev:   Default: 

Gurobi 9.1.0 (win64) logging started Sat Jan 30 10:57:49 2021

Changed value of parameter LogFile to D:\base\jupyter\gurobi\example\log.txt
   Prev:   Default: 

Gurobi 9.1.0 (win64) logging started Sat Jan 30 10:58:01 2021

Changed value of parameter LogFile to D:\base\jupyter\gurobi\example\log.txt
   Prev:   Default: 

Gurobi 9.1.0 (win64) logging started Sat Jan 30 11:01:09 2021

Changed value of parameter LogFile to D:\base\jupyter\gurobi\example\log.txt
   Prev:   Default: 

Gurobi 9.1.0 (win64) logging started Sat Jan 30 11:05:11 2021

Changed value of parameter LogFile to D:\base\jupyter\gurobi\example\log.txt
   Prev:   Default: 

Gurobi 9.1.0 (win64) logging started Sat Jan 30 11:05:19 2021

Changed value of parameter LogFile to D:\base\jupyter\gurobi\example\log.txt
   Prev:   Default: 

Gurobi 9.1.0 (win64) logging started Sat Jan 30 11:06:11 2021

Changed value of parameter LogFile to D:\base\jupyter\gurobi\example\log.txt
   Prev:   Default: 

Gurobi 9.1.0 (win64) logging started Sat Jan 30 11:07:07 2021

Changed value of parameter LogFile to D:\base\jupyter\gurobi\example\log.txt
   Prev:   Default: 

Gurobi 9.1.0 (win64) logging started Sat Jan 30 11:07:46 2021

Changed value of parameter LogFile to D:\base\jupyter\gurobi\example\log.txt
   Prev:   Default: 

Gurobi 9.1.0 (win64) logging started Sat Jan 30 11:08:47 2021

Changed value of parameter LogFile to D:\base\jupyter\gurobi\example\log.txt
   Prev:   Default: 

Gurobi 9.1.0 (win64) logging started Sat Jan 30 11:11:40 2021

Changed value of parameter LogFile to D:\base\jupyter\gurobi\example\log.txt
   Prev:   Default: 

Gurobi 9.1.0 (win64) logging started Sat Jan 30 11:12:04 2021

Changed value of parameter LogFile to D:\base\jupyter\gurobi\example\log.txt
   Prev:   Default: 

Gurobi 9.1.0 (win64) logging started Sat Jan 30 11:12:36 2021

Changed value of parameter LogFile to D:\base\jupyter\gurobi\example\log.txt
   Prev:   Default: 

Gurobi 9.1.0 (win64) logging started Sat Jan 30 11:14:22 2021

Changed value of parameter LogFile to D:\base\jupyter\gurobi\example\log.txt
   Prev:   Default: 

Gurobi 9.1.0 (win64) logging started Sat Jan 30 11:16:54 2021

Changed value of parameter LogFile to D:\base\jupyter\gurobi\example\log.txt
   Prev:   Default: 

Gurobi 9.1.0 (win64) logging started Sat Jan 30 11:19:22 2021

Changed value of parameter LogFile to D:\base\jupyter\gurobi\example\log.txt
   Prev:   Default: 

Gurobi 9.1.0 (win64) logging started Sat Jan 30 11:20:26 2021

Changed value of parameter LogFile to D:\base\jupyter\gurobi\example\log.txt
   Prev:   Default: 

Gurobi 9.1.0 (win64) logging started Sat Jan 30 11:26:14 2021

Changed value of parameter LogFile to D:\base\jupyter\gurobi\example\log.txt
   Prev:   Default: 

Gurobi 9.1.0 (win64) logging started Sat Jan 30 11:26:32 2021

Changed value of parameter LogFile to D:\base\jupyter\gurobi\example\log.txt
   Prev:   Default: 

Gurobi 9.1.0 (win64) logging started Sat Jan 30 11:32:12 2021

Changed value of parameter LogFile to D:\base\jupyter\gurobi\example\log.txt
   Prev:   Default: 

Gurobi 9.1.0 (win64) logging started Sat Jan 30 11:34:43 2021

Changed value of parameter LogFile to D:\base\jupyter\gurobi\example\log.txt
   Prev:   Default: 

Gurobi 9.1.0 (win64) logging started Sat Jan 30 22:12:23 2021

Changed value of parameter LogFile to D:\base\jupyter\gurobi\example\log.txt
   Prev:   Default: 

Gurobi 9.1.0 (win64) logging started Sat Jan 30 22:12:47 2021

Changed value of parameter LogFile to D:\base\jupyter\gurobi\example\log.txt
   Prev:   Default: 
